objective value:                       1.581195223328
x(0,12,1)                                           1 	(obj:0)
x(1,14,0)                                           1 	(obj:0)
x(2,7,1)                                            1 	(obj:0)
x(3,7,2)                                            1 	(obj:0)
x(4,1,0)                                            1 	(obj:0)
x(5,0,1)                                            1 	(obj:0)
x(6,3,2)                                            1 	(obj:0)
x(7,5,1)                                            1 	(obj:0)
x(7,16,2)                                           1 	(obj:0)
x(12,2,1)                                           1 	(obj:0)
x(14,4,0)                                           1 	(obj:0)
x(16,6,2)                                           1 	(obj:0)
xc(0,9)                                             1 	(obj:0)
xc(1,5)                                             1 	(obj:0)
xc(3,2)                                             1 	(obj:0)
xc(4,14)                                            1 	(obj:0)
xc(7,15)                                            1 	(obj:0)
xc(7,18)                                            1 	(obj:0)
u(0,1)                              0.864141393166003 	(obj:0)
u(1,0)                                0.7122756992462 	(obj:0)
u(3,2)                              0.616303397553301 	(obj:0)
u(5,1)                              0.797618872978003 	(obj:0)
u(7,1)                              0.515309361914701 	(obj:0)
u(7,2)                                 1.178778080565 	(obj:0)
u(8,1)                                 1.581195223328 	(obj:0)
u(12,1)                                1.581195223328 	(obj:0)
u(14,0)                                1.581195223328 	(obj:0)
u(16,2)                               1.4838616390882 	(obj:0)
f(0,9,0)                                            1 	(obj:0)
f(0,9,1)                                            1 	(obj:0)
f(0,9,2)                                            1 	(obj:0)
f(0,9,3)                                            1 	(obj:0)
f(0,9,4)                                            1 	(obj:0)
f(1,5,1)                                            1 	(obj:0)
f(1,5,4)                                            1 	(obj:0)
f(2,7,2)                                            1 	(obj:0)
f(2,7,3)                                            1 	(obj:0)
f(3,2,3)                                            1 	(obj:0)
f(4,1,4)                                            1 	(obj:0)
f(5,0,1)                                            1 	(obj:0)
f(5,0,2)                                            1 	(obj:0)
f(5,0,3)                                            1 	(obj:0)
f(5,0,4)                                            1 	(obj:0)
f(7,5,2)                                            1 	(obj:0)
f(7,5,3)                                            1 	(obj:0)
z_r(0,)                                1.581195223328 	(obj:0)
z_r(1,)                                1.581195223328 	(obj:0)
z_r(2,)                               1.4838616390882 	(obj:0)
z                                      1.581195223328 	(obj:1)
